c Reduced graph for miles500 generated by Cyril Grelier
p edge 128 1170
e 1 2
e 1 4
e 1 13
e 1 14
e 1 24
e 1 25
e 1 31
e 1 34
e 1 35
e 1 36
e 1 37
e 1 42
e 1 50
e 1 51
e 1 57
e 1 58
e 1 59
e 1 63
e 1 64
e 1 65
e 1 73
e 1 74
e 1 75
e 1 77
e 1 82
e 1 83
e 1 87
e 1 92
e 1 100
e 1 101
e 1 103
e 1 104
e 1 112
e 1 113
e 1 114
e 2 13
e 2 17
e 2 24
e 2 25
e 2 27
e 2 31
e 2 34
e 2 35
e 2 37
e 2 42
e 2 50
e 2 51
e 2 57
e 2 58
e 2 63
e 2 64
e 2 65
e 2 73
e 2 74
e 2 75
e 2 76
e 2 77
e 2 82
e 2 83
e 2 87
e 2 92
e 2 100
e 2 101
e 2 103
e 2 104
e 2 112
e 2 113
e 2 116
e 3 4
e 3 14
e 3 15
e 3 18
e 3 26
e 3 32
e 3 35
e 3 36
e 3 45
e 3 52
e 3 59
e 3 60
e 3 63
e 3 67
e 3 73
e 3 80
e 3 81
e 3 87
e 3 88
e 3 90
e 3 92
e 3 93
e 3 94
e 3 102
e 3 110
e 3 115
e 3 119
e 3 124
e 3 125
e 4 14
e 4 34
e 4 35
e 4 36
e 4 59
e 4 63
e 4 67
e 4 73
e 4 74
e 4 80
e 4 81
e 4 87
e 4 92
e 4 93
e 4 100
e 4 101
e 4 102
e 4 103
e 4 114
e 4 124
e 4 125
e 5 7
e 5 8
e 5 10
e 5 18
e 5 26
e 5 43
e 5 44
e 5 53
e 5 60
e 5 68
e 5 88
e 5 89
e 5 90
e 5 105
e 5 106
e 5 111
e 5 119
e 5 122
e 6 13
e 6 24
e 6 37
e 6 50
e 6 51
e 6 57
e 6 58
e 6 64
e 6 65
e 6 74
e 6 77
e 6 82
e 6 83
e 6 104
e 6 112
e 6 114
e 7 8
e 7 9
e 7 10
e 7 43
e 7 44
e 7 53
e 7 68
e 7 85
e 7 89
e 7 95
e 7 105
e 7 106
e 7 111
e 7 126
e 7 128
e 8 9
e 8 38
e 8 43
e 8 53
e 8 68
e 8 95
e 8 105
e 8 106
e 8 107
e 8 111
e 8 126
e 8 128
e 9 53
e 9 68
e 9 95
e 9 105
e 9 106
e 9 126
e 9 128
e 10 11
e 10 44
e 10 85
e 10 86
e 10 122
e 10 127
e 11 21
e 11 33
e 11 72
e 11 85
e 11 86
e 11 122
e 11 127
e 12 39
e 12 40
e 12 56
e 12 62
e 12 69
e 12 70
e 12 123
e 13 17
e 13 24
e 13 25
e 13 27
e 13 31
e 13 34
e 13 35
e 13 37
e 13 42
e 13 50
e 13 51
e 13 57
e 13 58
e 13 63
e 13 64
e 13 65
e 13 74
e 13 75
e 13 76
e 13 77
e 13 82
e 13 83
e 13 92
e 13 100
e 13 101
e 13 104
e 13 112
e 13 113
e 13 114
e 14 32
e 14 34
e 14 35
e 14 36
e 14 45
e 14 52
e 14 59
e 14 60
e 14 63
e 14 67
e 14 73
e 14 80
e 14 81
e 14 87
e 14 92
e 14 93
e 14 94
e 14 100
e 14 101
e 14 102
e 14 103
e 14 114
e 14 115
e 14 124
e 14 125
e 15 18
e 15 26
e 15 32
e 15 45
e 15 52
e 15 80
e 15 84
e 15 88
e 15 90
e 15 93
e 15 94
e 15 96
e 15 109
e 15 110
e 15 115
e 15 119
e 15 124
e 16 17
e 16 19
e 16 27
e 16 46
e 16 54
e 16 61
e 16 66
e 16 75
e 16 76
e 16 78
e 16 79
e 16 103
e 16 107
e 16 108
e 16 116
e 16 118
e 16 120
e 17 25
e 17 27
e 17 31
e 17 42
e 17 46
e 17 54
e 17 57
e 17 66
e 17 75
e 17 76
e 17 103
e 17 113
e 17 116
e 17 120
e 18 26
e 18 32
e 18 44
e 18 52
e 18 88
e 18 89
e 18 90
e 18 96
e 18 109
e 18 110
e 18 119
e 18 122
e 18 124
e 18 127
e 19 38
e 19 46
e 19 60
e 19 61
e 19 66
e 19 81
e 19 95
e 19 105
e 19 107
e 19 108
e 19 116
e 19 120
e 20 28
e 20 29
e 20 47
e 20 48
e 20 49
e 20 55
e 20 71
e 20 91
e 20 97
e 20 98
e 20 117
e 20 121
e 21 22
e 21 33
e 21 72
e 21 99
e 21 122
e 21 127
e 22 33
e 22 48
e 22 69
e 22 72
e 23 30
e 23 84
e 23 96
e 24 25
e 24 31
e 24 34
e 24 35
e 24 37
e 24 42
e 24 50
e 24 51
e 24 57
e 24 58
e 24 63
e 24 64
e 24 65
e 24 73
e 24 74
e 24 77
e 24 82
e 24 83
e 24 92
e 24 100
e 24 101
e 24 104
e 24 112
e 24 113
e 24 114
e 25 27
e 25 31
e 25 34
e 25 35
e 25 37
e 25 42
e 25 50
e 25 57
e 25 58
e 25 63
e 25 64
e 25 65
e 25 66
e 25 74
e 25 75
e 25 76
e 25 82
e 25 100
e 25 101
e 25 103
e 25 104
e 25 112
e 25 113
e 25 116
e 26 32
e 26 43
e 26 44
e 26 45
e 26 52
e 26 80
e 26 88
e 26 89
e 26 90
e 26 93
e 26 94
e 26 96
e 26 109
e 26 110
e 26 111
e 26 115
e 26 119
e 26 122
e 26 124
e 26 127
e 27 31
e 27 34
e 27 36
e 27 42
e 27 46
e 27 50
e 27 57
e 27 63
e 27 66
e 27 75
e 27 76
e 27 87
e 27 100
e 27 101
e 27 103
e 27 112
e 27 113
e 27 116
e 27 120
e 28 29
e 28 47
e 28 48
e 28 49
e 28 55
e 28 91
e 28 97
e 28 98
e 28 117
e 28 121
e 29 47
e 29 48
e 29 55
e 29 56
e 29 91
e 29 117
e 29 121
e 30 84
e 30 96
e 31 34
e 31 35
e 31 36
e 31 37
e 31 42
e 31 50
e 31 51
e 31 57
e 31 58
e 31 63
e 31 64
e 31 65
e 31 73
e 31 74
e 31 75
e 31 76
e 31 77
e 31 82
e 31 83
e 31 87
e 31 92
e 31 100
e 31 101
e 31 103
e 31 104
e 31 112
e 31 113
e 31 114
e 31 116
e 32 45
e 32 52
e 32 59
e 32 60
e 32 80
e 32 88
e 32 89
e 32 90
e 32 93
e 32 94
e 32 96
e 32 109
e 32 110
e 32 115
e 32 119
e 32 124
e 33 72
e 34 35
e 34 36
e 34 37
e 34 42
e 34 50
e 34 51
e 34 57
e 34 58
e 34 59
e 34 63
e 34 64
e 34 65
e 34 73
e 34 74
e 34 75
e 34 76
e 34 81
e 34 87
e 34 92
e 34 93
e 34 100
e 34 101
e 34 102
e 34 103
e 34 104
e 34 112
e 34 113
e 34 114
e 34 125
e 35 36
e 35 37
e 35 42
e 35 50
e 35 51
e 35 57
e 35 58
e 35 59
e 35 63
e 35 64
e 35 65
e 35 73
e 35 74
e 35 75
e 35 81
e 35 87
e 35 92
e 35 93
e 35 100
e 35 101
e 35 102
e 35 103
e 35 112
e 35 113
e 35 114
e 35 125
e 36 42
e 36 50
e 36 59
e 36 60
e 36 63
e 36 73
e 36 74
e 36 75
e 36 80
e 36 81
e 36 87
e 36 88
e 36 92
e 36 93
e 36 100
e 36 101
e 36 102
e 36 103
e 36 114
e 36 115
e 36 124
e 36 125
e 37 42
e 37 50
e 37 51
e 37 57
e 37 58
e 37 63
e 37 64
e 37 65
e 37 74
e 37 75
e 37 76
e 37 77
e 37 82
e 37 83
e 37 92
e 37 100
e 37 101
e 37 104
e 37 112
e 37 113
e 37 114
e 38 43
e 38 53
e 38 61
e 38 68
e 38 95
e 38 105
e 38 106
e 38 107
e 38 108
e 39 40
e 39 56
e 39 62
e 39 69
e 39 70
e 39 123
e 40 56
e 40 62
e 40 69
e 40 70
e 40 123
e 41 71
e 41 85
e 41 97
e 42 50
e 42 57
e 42 58
e 42 63
e 42 64
e 42 65
e 42 73
e 42 74
e 42 75
e 42 76
e 42 87
e 42 92
e 42 100
e 42 101
e 42 103
e 42 104
e 42 112
e 42 113
e 42 116
e 43 44
e 43 52
e 43 53
e 43 60
e 43 80
e 43 81
e 43 88
e 43 89
e 43 95
e 43 102
e 43 105
e 43 106
e 43 107
e 43 111
e 43 119
e 44 52
e 44 53
e 44 60
e 44 80
e 44 88
e 44 89
e 44 90
e 44 106
e 44 109
e 44 111
e 44 119
e 44 122
e 44 127
e 45 52
e 45 59
e 45 67
e 45 80
e 45 90
e 45 93
e 45 94
e 45 96
e 45 109
e 45 110
e 45 115
e 45 124
e 45 125
e 46 54
e 46 61
e 46 66
e 46 76
e 46 78
e 46 79
e 46 108
e 46 116
e 46 118
e 46 120
e 47 48
e 47 49
e 47 55
e 47 91
e 47 97
e 47 98
e 47 117
e 47 121
e 48 55
e 48 91
e 48 97
e 48 117
e 48 121
e 49 71
e 49 91
e 49 97
e 49 98
e 49 117
e 49 121
e 50 51
e 50 57
e 50 58
e 50 63
e 50 64
e 50 65
e 50 73
e 50 74
e 50 75
e 50 76
e 50 77
e 50 82
e 50 83
e 50 87
e 50 92
e 50 100
e 50 101
e 50 104
e 50 112
e 50 113
e 50 114
e 51 57
e 51 58
e 51 63
e 51 64
e 51 65
e 51 74
e 51 77
e 51 82
e 51 83
e 51 92
e 51 100
e 51 101
e 51 104
e 51 112
e 51 113
e 51 114
e 52 59
e 52 60
e 52 80
e 52 81
e 52 88
e 52 89
e 52 90
e 52 93
e 52 94
e 52 96
e 52 102
e 52 109
e 52 110
e 52 115
e 52 119
e 52 124
e 53 68
e 53 88
e 53 89
e 53 95
e 53 105
e 53 106
e 53 111
e 53 119
e 53 126
e 54 61
e 54 66
e 54 78
e 54 79
e 54 108
e 54 116
e 54 118
e 54 120
e 55 56
e 55 69
e 55 91
e 55 117
e 55 121
e 56 62
e 56 69
e 56 70
e 56 123
e 57 58
e 57 63
e 57 64
e 57 65
e 57 73
e 57 74
e 57 75
e 57 76
e 57 77
e 57 82
e 57 83
e 57 87
e 57 92
e 57 100
e 57 101
e 57 104
e 57 112
e 57 113
e 57 114
e 58 63
e 58 64
e 58 65
e 58 74
e 58 77
e 58 82
e 58 83
e 58 92
e 58 100
e 58 101
e 58 104
e 58 112
e 58 113
e 58 114
e 59 60
e 59 63
e 59 67
e 59 73
e 59 80
e 59 81
e 59 87
e 59 92
e 59 93
e 59 94
e 59 100
e 59 101
e 59 102
e 59 103
e 59 114
e 59 115
e 59 124
e 59 125
e 60 73
e 60 80
e 60 81
e 60 87
e 60 88
e 60 89
e 60 92
e 60 93
e 60 102
e 60 107
e 60 111
e 60 115
e 60 119
e 60 124
e 61 66
e 61 95
e 61 105
e 61 107
e 61 108
e 61 116
e 61 120
e 62 69
e 62 70
e 62 123
e 63 64
e 63 65
e 63 73
e 63 74
e 63 75
e 63 81
e 63 87
e 63 92
e 63 93
e 63 100
e 63 101
e 63 102
e 63 103
e 63 112
e 63 113
e 63 114
e 63 125
e 64 65
e 64 73
e 64 74
e 64 75
e 64 76
e 64 77
e 64 82
e 64 83
e 64 92
e 64 100
e 64 101
e 64 104
e 64 112
e 64 113
e 64 114
e 65 74
e 65 77
e 65 82
e 65 83
e 65 101
e 65 104
e 65 112
e 65 113
e 65 114
e 66 75
e 66 76
e 66 78
e 66 79
e 66 108
e 66 116
e 66 118
e 66 120
e 67 73
e 67 92
e 67 93
e 67 94
e 67 115
e 67 124
e 67 125
e 68 95
e 68 105
e 68 106
e 68 111
e 68 126
e 68 128
e 69 70
e 69 123
e 70 123
e 71 91
e 71 97
e 71 98
e 71 121
e 73 74
e 73 75
e 73 80
e 73 81
e 73 87
e 73 92
e 73 93
e 73 100
e 73 101
e 73 102
e 73 103
e 73 114
e 73 115
e 73 124
e 73 125
e 74 77
e 74 82
e 74 83
e 74 87
e 74 92
e 74 100
e 74 101
e 74 104
e 74 112
e 74 113
e 74 114
e 75 76
e 75 87
e 75 92
e 75 100
e 75 101
e 75 103
e 75 112
e 75 113
e 75 116
e 76 100
e 76 101
e 76 103
e 76 112
e 76 113
e 76 116
e 77 82
e 77 83
e 77 104
e 77 112
e 77 113
e 78 79
e 78 108
e 78 118
e 78 120
e 79 108
e 79 118
e 79 120
e 80 81
e 80 87
e 80 88
e 80 89
e 80 92
e 80 93
e 80 94
e 80 100
e 80 102
e 80 107
e 80 115
e 80 119
e 80 124
e 80 125
e 81 87
e 81 88
e 81 89
e 81 92
e 81 93
e 81 100
e 81 101
e 81 102
e 81 103
e 81 107
e 81 115
e 81 119
e 81 124
e 82 83
e 82 104
e 82 112
e 82 113
e 82 114
e 83 104
e 83 112
e 83 113
e 83 114
e 84 90
e 84 96
e 84 109
e 84 110
e 85 86
e 85 126
e 86 122
e 87 92
e 87 93
e 87 100
e 87 101
e 87 102
e 87 103
e 87 114
e 87 124
e 87 125
e 88 89
e 88 90
e 88 93
e 88 102
e 88 105
e 88 106
e 88 107
e 88 111
e 88 119
e 89 90
e 89 102
e 89 106
e 89 109
e 89 111
e 89 119
e 89 122
e 90 94
e 90 96
e 90 109
e 90 110
e 90 115
e 90 119
e 90 124
e 91 97
e 91 98
e 91 117
e 91 121
e 92 93
e 92 100
e 92 101
e 92 102
e 92 103
e 92 114
e 92 124
e 92 125
e 93 94
e 93 100
e 93 102
e 93 110
e 93 115
e 93 124
e 93 125
e 94 96
e 94 102
e 94 109
e 94 110
e 94 115
e 94 124
e 94 125
e 95 105
e 95 106
e 95 107
e 95 111
e 95 126
e 95 128
e 96 109
e 96 110
e 97 98
e 97 121
e 98 117
e 98 121
e 99 122
e 99 127
e 100 101
e 100 102
e 100 103
e 100 112
e 100 113
e 100 114
e 100 125
e 101 102
e 101 103
e 101 104
e 101 112
e 101 113
e 101 114
e 102 103
e 102 107
e 102 115
e 102 119
e 102 124
e 102 125
e 103 116
e 104 112
e 104 113
e 104 114
e 105 106
e 105 107
e 105 111
e 105 126
e 105 128
e 106 111
e 106 119
e 106 126
e 106 128
e 107 108
e 107 120
e 108 116
e 108 118
e 108 120
e 109 110
e 109 115
e 109 119
e 109 124
e 110 115
e 110 119
e 110 124
e 111 119
e 112 113
e 112 114
e 113 116
e 114 125
e 115 124
e 115 125
e 116 120
e 117 121
e 118 120
e 119 124
e 122 127
e 126 128
